2 1
3 1
3 2
4 1
4 2
4 3
5 1
5 2
5 3
5 4
6 1
6 2
6 3
6 4
6 5
7 1
7 2
7 3
7 4
7 5
7 6
8 1
8 2
8 3
8 4
8 5
8 6
8 7
9 1
9 2
9 3
9 4
9 5
9 6
9 7
9 8
10 1
10 2
10 3
10 4
10 5
10 6
10 7
10 8
10 9
11 1
11 2
11 3
11 4
11 5
11 6
11 7
11 8
11 9
11 10
12 1
12 2
12 3
12 4
12 5
12 6
12 7
12 8
12 9
12 10
12 11
13 1
13 2
13 3
13 4
13 5
13 6
13 7
13 8
13 9
13 10
13 11
13 12
14 1
14 2
14 3
14 4
14 5
14 6
14 7
14 8
14 9
14 10
14 11
14 12
14 13
15 1
15 2
15 3
15 4
15 5
15 6
15 7
15 8
15 9
15 10
15 11
15 12
15 13
15 14
16 1
16 2
16 3
16 4
16 5
16 6
16 7
16 8
16 9
16 10
16 11
16 12
16 13
16 14
16 15
18 17
19 17
19 18
20 17
20 18
20 19
21 17
21 18
21 19
21 20
22 17
22 18
22 19
22 20
22 21
23 17
23 18
23 19
23 20
23 21
23 22
24 17
24 18
24 19
24 20
24 21
24 22
24 23
25 17
25 18
25 19
25 20
25 21
25 22
25 23
25 24
26 17
26 18
26 19
26 20
26 21
26 22
26 23
26 24
26 25
27 17
27 18
27 19
27 20
27 21
27 22
27 23
27 24
27 25
27 26
28 17
28 18
28 19
28 20
28 21
28 22
28 23
28 24
28 25
28 26
28 27
29 17
29 18
29 19
29 20
29 21
29 22
29 23
29 24
29 25
29 26
29 27
29 28
30 17
30 18
30 19
30 20
30 21
30 22
30 23
30 24
30 25
30 26
30 27
30 28
30 29
31 17
31 18
31 19
31 20
31 21
31 22
31 23
31 24
31 25
31 26
31 27
31 28
31 29
31 30
32 17
32 18
32 19
32 20
32 21
32 22
32 23
32 24
32 25
32 26
32 27
32 28
32 29
32 30
32 31
33 1
33 2
33 17
33 18
33 19
33 20
33 21
33 22
33 23
33 24
33 25
33 26
33 27
33 28
33 29
33 30
33 31
33 32
34 1
34 2
34 3
34 4
34 5
34 6
34 7
34 8
34 9
34 10
34 11
34 12
34 13
34 14
34 15
34 16
34 17
35 1
35 2
35 17
35 18
35 19
35 20
35 21
35 22
35 23
35 24
35 25
35 26
35 27
35 28
35 29
35 30
35 31
35 32
35 33
36 1
36 2
36 17
36 18
36 19
36 20
36 21
36 22
36 23
36 24
36 25
36 26
36 27
36 28
36 29
36 30
36 31
36 32
36 33
37 1
37 2
37 17
37 18
37 19
37 20
37 21
37 22
37 23
37 24
37 25
37 26
37 27
37 28
37 29
37 30
37 31
37 32
37 33
38 1
38 2
38 17
38 18
38 19
38 20
38 21
38 22
38 23
38 24
38 25
38 26
38 27
38 28
38 29
38 30
38 31
38 32
39 1
39 2
39 3
39 5
39 6
39 7
39 8
39 9
39 10
39 11
39 12
39 13
39 14
39 16
39 17
39 18
39 19
39 20
39 21
39 22
39 23
39 24
39 25
39 26
39 27
39 28
39 29
39 30
39 31
39 32
39 33
39 35
39 36
39 37
39 38
40 1
40 2
40 3
40 6
40 7
40 8
40 9
40 10
40 11
40 12
40 13
40 14
40 16
40 17
40 18
40 19
40 20
40 21
40 22
40 23
40 24
40 25
40 26
40 27
40 28
40 29
40 30
40 31
40 32
40 33
40 35
40 36
40 37
40 38
40 39
41 1
41 2
41 3
41 7
41 8
41 9
41 10
41 11
41 12
41 13
41 14
41 16
41 17
41 18
41 19
41 20
41 21
41 22
41 23
41 24
41 25
41 26
41 27
41 28
41 29
41 30
41 31
41 32
41 33
41 35
41 36
41 37
41 38
41 39
41 40
42 1
42 2
42 3
42 8
42 9
42 10
42 11
42 12
42 13
42 14
42 16
42 17
42 18
42 19
42 20
42 21
42 22
42 23
42 24
42 25
42 26
42 27
42 28
42 29
42 30
42 31
42 32
42 33
42 35
42 36
42 37
42 38
42 39
42 40
42 41
43 1
43 2
43 3
43 9
43 10
43 11
43 12
43 13
43 14
43 16
43 17
43 18
43 19
43 20
43 21
43 22
43 23
43 24
43 25
43 26
43 27
43 28
43 29
43 30
43 31
43 32
43 33
43 35
43 36
43 37
43 38
43 39
43 40
43 41
43 42
44 1
44 2
44 3
44 10
44 11
44 12
44 13
44 14
44 16
44 17
44 18
44 19
44 20
44 21
44 22
44 23
44 24
44 25
44 26
44 27
44 28
44 29
44 30
44 31
44 32
44 33
44 35
44 36
44 37
44 38
44 39
44 40
44 41
44 42
44 43
45 1
45 2
45 3
45 11
45 12
45 13
45 14
45 16
45 17
45 18
45 19
45 20
45 21
45 22
45 23
45 24
45 25
45 26
45 27
45 28
45 29
45 30
45 31
45 32
45 33
45 35
45 36
45 37
45 38
45 39
45 40
45 41
45 42
45 43
45 44
46 1
46 2
46 3
46 11
46 12
46 13
46 14
46 17
46 18
46 19
46 20
46 21
46 22
46 23
46 24
46 25
46 26
46 27
46 28
46 29
46 30
46 31
46 32
46 33
46 35
46 36
46 37
46 38
46 39
46 40
46 41
46 42
46 43
46 44
46 45
47 1
47 2
47 3
47 4
47 5
47 6
47 7
47 8
47 9
47 10
47 11
47 12
47 13
47 14
47 15
47 16
47 17
47 19
47 20
47 21
47 22
47 23
47 24
47 25
47 26
47 34
48 1
48 2
48 3
48 4
48 5
48 6
48 7
48 8
48 9
48 10
48 11
48 12
48 13
48 14
48 15
48 16
48 17
48 20
48 21
48 22
48 23
48 24
48 25
48 26
48 34
48 47
49 1
49 2
49 3
49 4
49 5
49 6
49 7
49 8
49 9
49 10
49 11
49 12
49 13
49 14
49 15
49 16
49 17
49 21
49 22
49 23
49 24
49 25
49 26
49 34
49 47
49 48
50 1
50 2
50 3
50 4
50 5
50 6
50 7
50 8
50 9
50 10
50 11
50 12
50 13
50 14
50 15
50 16
50 17
50 22
50 23
50 24
50 25
50 26
50 34
50 47
50 48
50 49
51 1
51 2
51 3
51 4
51 5
51 6
51 7
51 8
51 9
51 10
51 11
51 12
51 13
51 14
51 15
51 16
51 17
51 23
51 24
51 25
51 26
51 34
51 47
51 48
51 49
51 50
52 1
52 2
52 3
52 4
52 5
52 6
52 7
52 8
52 9
52 10
52 11
52 12
52 13
52 14
52 15
52 16
52 17
52 24
52 25
52 26
52 34
52 47
52 48
52 49
52 50
52 51
53 1
53 2
53 3
53 4
53 5
53 6
53 7
53 8
53 9
53 10
53 11
53 12
53 13
53 14
53 15
53 16
53 17
53 25
53 26
53 34
53 47
53 48
53 49
53 50
53 51
53 52
54 1
54 2
54 3
54 4
54 5
54 6
54 7
54 8
54 9
54 10
54 11
54 12
54 13
54 14
54 15
54 16
54 17
54 26
54 34
54 47
54 48
54 49
54 50
54 51
54 52
54 53
55 1
55 2
55 3
55 4
55 5
55 6
55 7
55 8
55 9
55 10
55 11
55 12
55 13
55 14
55 15
55 16
55 17
55 34
55 47
55 48
55 49
55 50
55 51
55 52
55 53
55 54
56 1
56 2
56 3
56 12
56 13
56 14
56 17
56 18
56 19
56 20
56 21
56 22
56 23
56 24
56 25
56 26
56 27
56 28
56 29
56 30
56 31
56 32
56 33
56 35
56 36
56 37
56 38
56 39
56 40
56 41
56 42
56 43
56 44
56 45
56 46
57 1
57 2
57 3
57 12
57 13
57 14
57 17
57 18
57 19
57 20
57 21
57 22
57 23
57 24
57 25
57 26
57 27
57 28
57 29
57 30
57 31
57 32
57 33
57 35
57 36
57 37
57 38
57 39
57 40
57 41
57 42
57 43
57 44
57 45
57 46
57 56
59 1
59 2
59 3
59 13
59 14
59 17
59 18
59 19
59 20
59 21
59 22
59 23
59 24
59 25
59 26
59 27
59 28
59 29
59 30
59 31
59 32
59 33
59 35
59 36
59 37
59 38
59 39
59 40
59 41
59 42
59 43
59 44
59 45
59 46
59 56
59 57
60 1
60 2
60 3
60 13
60 14
60 17
60 18
60 19
60 20
60 21
60 22
60 23
60 24
60 25
60 26
60 27
60 28
60 29
60 30
60 31
60 32
60 33
60 35
60 36
60 37
60 38
60 39
60 40
60 41
60 42
60 43
60 44
60 45
60 46
60 56
60 57
60 59
62 1
62 2
62 3
62 14
62 17
62 18
62 19
62 20
62 21
62 22
62 23
62 24
62 25
62 26
62 27
62 28
62 29
62 30
62 31
62 32
62 33
62 35
62 36
62 37
62 39
62 40
62 41
62 42
62 43
62 44
62 45
62 46
62 56
62 57
62 59
62 60
63 1
63 2
63 3
63 17
63 18
63 19
63 20
63 21
63 22
63 23
63 24
63 25
63 26
63 27
63 28
63 29
63 30
63 31
63 32
63 33
63 35
63 36
63 37
63 39
63 40
63 41
63 42
63 43
63 44
63 45
63 46
63 56
63 57
63 59
63 60
63 62
64 1
64 2
64 3
64 17
64 18
64 19
64 20
64 21
64 22
64 23
64 24
64 25
64 26
64 27
64 28
64 29
64 30
64 31
64 32
64 33
64 35
64 36
64 37
64 39
64 40
64 41
64 42
64 43
64 44
64 45
64 46
64 56
64 57
64 59
64 60
64 62
64 63
65 1
65 2
65 3
65 4
65 5
65 6
65 7
65 8
65 9
65 10
65 11
65 12
65 13
65 14
65 15
65 16
65 17
65 34
65 47
65 48
65 49
65 50
65 51
65 52
65 53
65 54
65 55
67 1
67 2
67 3
67 4
67 5
67 6
67 7
67 8
67 9
67 10
67 11
67 12
67 13
67 14
67 15
67 16
67 17
67 34
67 47
67 48
67 49
67 50
67 51
67 52
67 53
67 54
67 55
67 65
68 1
68 2
68 3
68 4
68 5
68 6
68 7
68 8
68 9
68 10
68 11
68 12
68 13
68 14
68 15
68 16
68 17
68 47
68 48
68 49
68 50
68 51
68 52
68 53
68 54
68 55
68 65
68 67
71 1
71 2
71 3
71 4
71 5
71 6
71 7
71 8
71 9
71 10
71 11
71 12
71 13
71 14
71 15
71 16
71 17
71 34
71 47
71 48
71 49
71 50
71 51
71 52
71 53
71 54
71 55
71 65
71 67
73 1
73 2
73 17
73 18
73 19
73 20
73 21
73 22
73 23
73 24
73 25
73 26
73 27
73 28
73 29
73 30
73 31
73 32
73 39
73 40
73 41
73 42
73 43
73 44
73 45
73 46
73 56
73 57
73 59
73 60
73 62
73 63
73 64
74 1
74 2
74 3
74 4
74 5
74 6
74 7
74 8
74 9
74 10
74 11
74 12
74 13
74 14
74 15
74 16
74 17
74 34
74 47
74 48
74 49
74 50
74 51
74 52
74 53
74 54
74 55
74 65
74 67
74 71
75 1
75 2
75 3
75 4
75 5
75 6
75 7
75 8
75 9
75 10
75 11
75 12
75 13
75 14
75 15
75 16
75 17
75 34
75 47
75 48
75 49
75 50
75 51
75 52
75 53
75 54
75 55
75 65
75 67
75 71
75 74
77 1
77 2
77 17
77 18
77 19
77 20
77 21
77 22
77 23
77 24
77 25
77 26
77 27
77 28
77 29
77 30
77 31
77 32
77 39
77 40
77 41
77 42
77 43
77 44
77 45
77 46
77 56
77 57
77 59
77 60
77 62
77 63
77 64
77 73
80 1
80 2
80 3
80 4
80 5
80 6
80 7
80 8
80 9
80 10
80 11
80 12
80 13
80 14
80 15
80 16
80 17
80 34
80 47
80 48
80 49
80 50
80 51
80 52
80 53
80 54
80 55
80 65
80 67
80 71
80 74
80 75
83 1
83 2
83 17
83 18
83 19
83 20
83 21
83 22
83 23
83 24
83 25
83 26
83 27
83 28
83 29
83 30
83 31
83 32
83 33
83 35
83 36
83 37
83 39
83 40
83 41
83 42
83 43
83 44
83 45
83 46
83 56
83 57
83 59
83 60
83 62
83 63
83 64
83 73
85 1
85 2
85 17
85 18
85 19
85 20
85 21
85 22
85 23
85 24
85 25
85 26
85 27
85 28
85 29
85 30
85 31
85 32
85 33
85 35
85 36
85 37
85 39
85 40
85 41
85 42
85 43
85 44
85 45
85 46
85 56
85 57
85 59
85 60
85 62
85 63
85 64
85 73
85 83
87 1
87 2
87 17
87 18
87 19
87 20
87 21
87 22
87 23
87 24
87 25
87 26
87 27
87 28
87 29
87 30
87 31
87 32
87 33
87 35
87 36
87 37
87 39
87 40
87 41
87 42
87 43
87 44
87 45
87 46
87 56
87 57
87 59
87 60
87 62
87 63
87 64
87 73
87 83
87 85
88 1
88 2
88 17
88 18
88 19
88 20
88 21
88 22
88 23
88 24
88 25
88 26
88 27
88 28
88 29
88 30
88 31
88 32
88 33
88 35
88 36
88 37
88 39
88 40
88 41
88 42
88 43
88 44
88 45
88 46
88 56
88 57
88 59
88 60
88 62
88 63
88 64
88 73
88 83
88 85
88 87
90 1
90 2
90 17
90 18
90 19
90 20
90 21
90 22
90 23
90 24
90 25
90 26
90 27
90 28
90 29
90 30
90 31
90 32
90 39
90 40
90 41
90 42
90 43
90 44
90 45
90 46
90 56
90 57
90 59
90 60
90 62
90 63
90 64
90 73
90 83
90 85
90 87
90 88
91 1
91 2
91 17
91 18
91 19
91 20
91 21
91 22
91 23
91 24
91 25
91 26
91 27
91 28
91 29
91 30
91 31
91 32
91 33
91 35
91 36
91 37
91 39
91 40
91 41
91 42
91 43
91 44
91 45
91 46
91 56
91 57
91 59
91 60
91 62
91 63
91 64
91 73
91 83
91 85
91 87
91 88
93 1
93 2
93 17
93 18
93 19
93 20
93 21
93 22
93 23
93 24
93 25
93 26
93 27
93 28
93 29
93 30
93 31
93 32
93 39
93 40
93 41
93 42
93 43
93 44
93 45
93 46
93 56
93 57
93 59
93 60
93 62
93 63
93 64
93 73
93 83
93 85
93 87
93 88
93 91
96 1
96 2
96 17
96 18
96 19
96 20
96 21
96 22
96 23
96 24
96 25
96 26
96 27
96 28
96 29
96 30
96 31
96 32
96 39
96 40
96 41
96 42
96 43
96 44
96 45
96 46
96 56
96 57
96 59
96 60
96 62
96 63
96 64
96 73
96 83
96 85
96 87
96 88
96 91
96 93
99 1
99 2
99 17
99 18
99 19
99 20
99 21
99 22
99 23
99 24
99 25
99 26
99 27
99 28
99 29
99 30
99 31
99 32
99 33
99 35
99 36
99 37
99 39
99 40
99 41
99 42
99 43
99 44
99 45
99 46
99 56
99 57
99 59
99 60
99 62
99 63
99 64
99 73
99 83
99 85
99 87
99 88
99 91
99 93
99 96
102 1
102 2
102 17
102 18
102 19
102 20
102 21
102 22
102 23
102 24
102 25
102 26
102 27
102 28
102 29
102 30
102 31
102 32
102 39
102 40
102 41
102 42
102 43
102 44
102 45
102 46
102 56
102 57
102 59
102 60
102 62
102 63
102 64
102 73
102 83
102 85
102 87
102 88
102 91
102 93
102 96
102 99
104 1
104 2
104 17
104 18
104 19
104 20
104 21
104 22
104 23
104 24
104 25
104 26
104 27
104 28
104 29
104 30
104 31
104 32
104 33
104 35
104 36
104 37
104 39
104 40
104 41
104 42
104 43
104 44
104 45
104 46
104 56
104 57
104 59
104 60
104 62
104 63
104 64
104 73
104 83
104 85
104 87
104 88
104 91
104 93
104 96
104 99
104 102
107 1
107 2
107 17
107 18
107 19
107 20
107 21
107 22
107 23
107 24
107 25
107 26
107 27
107 28
107 29
107 30
107 31
107 32
107 33
107 35
107 36
107 37
107 39
107 40
107 41
107 42
107 43
107 44
107 45
107 46
107 56
107 57
107 59
107 60
107 62
107 63
107 64
107 73
107 83
107 85
107 87
107 88
107 91
107 93
107 96
107 99
107 102
107 104
108 1
108 2
108 17
108 18
108 19
108 20
108 21
108 22
108 23
108 24
108 25
108 26
108 27
108 28
108 29
108 30
108 31
108 32
108 39
108 40
108 41
108 42
108 43
108 44
108 45
108 46
108 56
108 57
108 59
108 60
108 62
108 63
108 64
108 73
108 83
108 85
108 87
108 88
108 91
108 93
108 96
108 99
108 104
108 107
109 1
109 2
109 17
109 18
109 19
109 20
109 21
109 22
109 23
109 24
109 25
109 26
109 27
109 28
109 29
109 30
109 31
109 32
109 39
109 40
109 41
109 42
109 43
109 44
109 45
109 46
109 56
109 57
109 59
109 60
109 62
109 63
109 64
109 73
109 83
109 85
109 87
109 88
109 91
109 96
109 99
109 104
109 107
109 108
111 1
111 2
111 17
111 18
111 19
111 20
111 21
111 22
111 23
111 24
111 25
111 26
111 27
111 28
111 29
111 30
111 31
111 32
111 33
111 35
111 36
111 37
111 39
111 40
111 41
111 42
111 43
111 44
111 45
111 46
111 56
111 57
111 59
111 60
111 62
111 63
111 64
111 73
111 83
111 85
111 87
111 88
111 91
111 96
111 99
111 104
111 107
111 108
111 109
112 1
112 2
112 17
112 18
112 19
112 20
112 21
112 22
112 23
112 24
112 25
112 26
112 27
112 28
112 29
112 30
112 31
112 32
112 33
112 35
112 36
112 37
112 39
112 40
112 41
112 42
112 43
112 44
112 45
112 46
112 56
112 57
112 59
112 60
112 62
112 63
112 64
112 73
112 83
112 85
112 87
112 88
112 91
112 99
112 104
112 107
112 108
112 109
112 111
114 1
114 2
114 17
114 18
114 19
114 20
114 21
114 22
114 23
114 24
114 25
114 26
114 27
114 28
114 29
114 30
114 31
114 32
114 33
114 35
114 36
114 37
114 39
114 40
114 41
114 42
114 43
114 44
114 45
114 46
114 56
114 57
114 59
114 60
114 62
114 63
114 64
114 73
114 83
114 85
114 87
114 88
114 91
114 99
114 104
114 107
114 108
114 109
114 111
114 112
117 1
117 2
117 17
117 18
117 19
117 20
117 21
117 22
117 23
117 24
117 25
117 26
117 27
117 28
117 29
117 30
117 31
117 32
117 33
117 35
117 36
117 37
117 39
117 40
117 41
117 42
117 43
117 44
117 45
117 46
117 56
117 57
117 59
117 60
117 62
117 63
117 64
117 73
117 83
117 85
117 87
117 88
117 91
117 99
117 104
117 107
117 109
117 111
117 112
117 114
118 1
118 2
118 17
118 18
118 19
118 20
118 21
118 22
118 23
118 24
118 25
118 26
118 27
118 28
118 29
118 30
118 31
118 32
118 33
118 35
118 36
118 37
118 39
118 40
118 41
118 42
118 43
118 44
118 45
118 46
118 56
118 57
118 59
118 60
118 62
118 63
118 64
118 73
118 83
118 85
118 87
118 88
118 91
118 99
118 104
118 107
118 109
118 111
118 112
118 114
118 117
120 1
120 2
120 17
120 18
120 19
120 20
120 21
120 22
120 23
120 24
120 25
120 26
120 27
120 28
120 29
120 30
120 31
120 32
120 33
120 35
120 36
120 37
120 39
120 40
120 41
120 42
120 43
120 44
120 45
120 46
120 56
120 57
120 59
120 60
120 62
120 63
120 64
120 73
120 83
120 85
120 87
120 88
120 91
120 99
120 104
120 107
120 111
120 112
120 114
120 117
120 118
121 1
121 2
121 3
121 4
121 5
121 6
121 7
121 8
121 9
121 10
121 11
121 12
121 13
121 14
121 15
121 16
121 17
121 47
121 48
121 49
121 50
121 51
121 52
121 53
121 54
121 55
121 65
121 67
121 71
121 74
121 75
121 80
125 1
125 2
125 3
125 4
125 5
125 6
125 7
125 8
125 9
125 10
125 11
125 12
125 13
125 14
125 15
125 16
125 17
125 47
125 48
125 49
125 50
125 51
125 52
125 53
125 54
125 55
125 65
125 67
125 71
125 74
125 75
125 80
126 1
126 2
126 3
126 4
126 5
126 6
126 7
126 8
126 9
126 10
126 11
126 12
126 13
126 14
126 15
126 16
126 17
126 47
126 48
126 49
126 50
126 51
126 52
126 53
126 54
126 55
126 65
126 67
126 71
126 74
126 75
126 80
127 1
127 2
127 3
127 4
127 5
127 6
127 7
127 8
127 9
127 10
127 11
127 12
127 13
127 14
127 15
127 16
127 17
127 47
127 48
127 49
127 50
127 51
127 52
127 53
127 54
127 55
127 65
127 67
127 71
127 74
127 75
127 80
128 1
128 2
128 3
128 4
128 5
128 6
128 7
128 8
128 9
128 10
128 11
128 12
128 13
128 14
128 15
128 16
128 17
128 47
128 48
128 49
128 50
128 51
128 52
128 53
128 54
128 55
128 65
128 67
128 71
128 74
128 75
128 80
129 1
129 2
129 3
129 4
129 5
129 6
129 7
129 8
129 9
129 10
129 11
129 12
129 13
129 14
129 15
129 16
129 17
129 47
129 48
129 49
129 50
129 51
129 52
129 53
129 54
129 55
129 65
129 67
129 71
129 74
129 75
129 80
130 1
130 2
130 3
130 4
130 5
130 6
130 7
130 8
130 9
130 10
130 11
130 12
130 13
130 14
130 15
130 16
130 17
130 47
130 48
130 49
130 50
130 51
130 52
130 53
130 54
130 55
130 65
130 67
130 71
130 74
130 75
130 80
131 1
131 2
131 3
131 4
131 5
131 6
131 7
131 8
131 9
131 10
131 11
131 12
131 13
131 14
131 15
131 16
131 17
131 34
131 47
131 48
131 49
131 50
131 51
131 52
131 53
131 54
131 55
131 65
131 67
131 71
131 74
131 75
131 80
135 1
135 2
135 3
135 4
135 5
135 6
135 7
135 8
135 9
135 10
135 11
135 12
135 13
135 14
135 15
135 16
135 17
135 34
135 47
135 48
135 49
135 50
135 51
135 52
135 53
135 54
135 55
135 65
135 67
135 71
135 74
135 75
135 80
136 1
136 2
136 3
136 4
136 5
136 6
136 7
136 8
136 9
136 10
136 11
136 12
136 13
136 14
136 15
136 16
136 17
136 47
136 48
136 49
136 50
136 51
136 52
136 53
136 54
136 55
136 65
136 67
136 71
136 74
136 75
136 80
137 1
137 2
137 3
137 4
137 5
137 6
137 7
137 8
137 9
137 10
137 11
137 12
137 13
137 14
137 15
137 16
137 17
137 47
137 48
137 49
137 50
137 51
137 52
137 53
137 54
137 55
137 65
137 67
137 71
137 74
137 75
137 80
138 1
138 2
138 3
138 4
138 5
138 6
138 7
138 8
138 9
138 10
138 11
138 12
138 13
138 14
138 15
138 16
138 17
138 47
138 48
138 49
138 50
138 51
138 52
138 53
138 54
138 55
138 65
138 67
138 71
138 74
138 75
138 80
138 137
139 1
139 2
139 3
139 4
139 5
139 6
139 7
139 8
139 9
139 10
139 11
139 12
139 13
139 14
139 15
139 16
139 17
139 47
139 48
139 49
139 50
139 51
139 52
139 53
139 54
139 55
139 65
139 67
139 71
139 74
139 75
139 80
142 1
142 2
142 17
142 18
142 19
142 20
142 21
142 22
142 23
142 24
142 25
142 26
142 27
142 28
142 29
142 30
142 31
142 32
142 33
142 39
142 40
142 41
142 42
142 43
142 44
142 45
142 46
142 56
142 57
142 59
142 60
142 62
142 63
142 64
142 83
142 85
142 87
142 88
142 91
142 99
142 104
142 107
142 111
142 112
142 114
142 117
142 118
142 120
144 1
144 2
144 17
144 18
144 19
144 20
144 21
144 22
144 23
144 24
144 25
144 26
144 27
144 28
144 29
144 30
144 31
144 32
144 33
144 35
144 39
144 40
144 41
144 42
144 43
144 44
144 45
144 46
144 56
144 57
144 59
144 60
144 62
144 63
144 64
144 83
144 85
144 87
144 88
144 91
144 99
144 104
144 107
144 111
144 112
144 114
144 117
144 118
144 120
145 1
145 2
145 3
145 4
145 5
145 6
145 7
145 8
145 9
145 10
145 11
145 12
145 13
145 14
145 15
145 16
145 17
145 47
145 48
145 49
145 50
145 51
145 52
145 53
145 54
145 55
145 65
145 67
145 71
145 74
145 75
145 80
146 1
146 2
146 17
146 18
146 19
146 20
146 21
146 22
146 23
146 24
146 25
146 26
146 27
146 28
146 29
146 30
146 31
146 32
146 33
146 35
146 39
146 40
146 41
146 42
146 43
146 44
146 45
146 46
146 56
146 57
146 59
146 60
146 62
146 63
146 64
146 83
146 85
146 87
146 88
146 91
146 99
146 104
146 107
146 111
146 112
146 114
146 117
146 118
146 120
146 144
147 1
147 2
147 3
147 4
147 5
147 6
147 7
147 8
147 9
147 10
147 11
147 12
147 13
147 14
147 15
147 16
147 17
147 47
147 48
147 49
147 50
147 51
147 52
147 53
147 54
147 55
147 65
147 67
147 71
147 74
147 75
147 80
147 145
148 1
148 2
148 17
148 18
148 19
148 20
148 21
148 22
148 23
148 24
148 25
148 26
148 27
148 28
148 29
148 30
148 31
148 32
148 33
148 35
148 39
148 40
148 41
148 42
148 43
148 44
148 45
148 46
148 56
148 57
148 59
148 60
148 62
148 63
148 64
148 83
148 85
148 87
148 88
148 91
148 99
148 104
148 107
148 111
148 112
148 114
148 117
148 118
148 120
148 144
149 1
149 2
149 3
149 4
149 5
149 6
149 7
149 8
149 9
149 10
149 11
149 12
149 13
149 14
149 15
149 16
149 17
149 47
149 48
149 49
149 50
149 51
149 52
149 53
149 54
149 55
149 65
149 67
149 71
149 74
149 75
149 80
149 145
149 147
150 1
150 2
150 3
150 4
150 5
150 6
150 7
150 8
150 9
150 10
150 11
150 12
150 13
150 14
150 15
150 16
150 17
150 47
150 48
150 49
150 50
150 51
150 52
150 53
150 54
150 55
150 65
150 67
150 71
150 74
150 75
150 80
150 145
151 1
151 2
151 3
151 4
151 5
151 6
151 7
151 8
151 9
151 10
151 11
151 12
151 13
151 14
151 15
151 16
151 17
151 47
151 48
151 49
151 50
151 51
151 52
151 53
151 54
151 55
151 65
151 67
151 71
151 74
151 75
151 80
152 1
152 2
152 17
152 18
152 19
152 20
152 21
152 22
152 23
152 24
152 25
152 26
152 27
152 28
152 29
152 30
152 31
152 32
152 33
152 35
152 39
152 40
152 41
152 42
152 43
152 44
152 45
152 46
152 56
152 57
152 59
152 60
152 62
152 63
152 64
152 83
152 85
152 87
152 88
152 91
152 99
152 104
152 107
152 111
152 112
152 114
152 117
152 118
152 120
152 144
153 1
153 2
153 3
153 4
153 5
153 6
153 7
153 8
153 9
153 10
153 11
153 12
153 13
153 14
153 15
153 16
153 17
153 47
153 48
153 49
153 50
153 51
153 52
153 53
153 54
153 55
153 65
153 67
153 71
153 74
153 75
153 80
153 151
154 1
154 2
154 3
154 4
154 5
154 6
154 7
154 8
154 9
154 10
154 11
154 12
154 13
154 14
154 15
154 16
154 17
154 47
154 48
154 49
154 50
154 51
154 52
154 53
154 54
154 55
154 65
154 67
154 71
154 74
154 75
154 80
157 1
157 2
157 17
157 18
157 19
157 20
157 21
157 22
157 23
157 24
157 25
157 26
157 27
157 28
157 29
157 30
157 31
157 32
157 33
157 35
157 39
157 40
157 41
157 42
157 43
157 44
157 45
157 46
157 56
157 57
157 59
157 60
157 62
157 63
157 64
157 83
157 85
157 87
157 88
157 91
157 99
157 104
157 107
157 111
157 112
157 114
157 117
157 118
157 120
160 1
160 2
160 3
160 4
160 5
160 6
160 7
160 8
160 9
160 10
160 11
160 12
160 13
160 14
160 15
160 16
160 17
160 47
160 48
160 49
160 50
160 51
160 52
160 53
160 54
160 55
160 65
160 67
160 71
160 74
160 75
160 80
161 1
161 2
161 3
161 4
161 5
161 6
161 7
161 8
161 9
161 10
161 11
161 12
161 13
161 14
161 15
161 16
161 17
161 47
161 48
161 49
161 50
161 51
161 52
161 53
161 54
161 55
161 65
161 67
161 71
161 74
161 75
161 80
161 160
162 1
162 2
162 3
162 4
162 5
162 6
162 7
162 8
162 9
162 10
162 11
162 12
162 13
162 14
162 15
162 16
162 17
162 47
162 48
162 49
162 50
162 51
162 52
162 53
162 54
162 55
162 65
162 67
162 71
162 74
162 75
162 80
162 160
162 161
163 1
163 2
163 3
163 4
163 5
163 6
163 7
163 8
163 9
163 10
163 11
163 12
163 13
163 14
163 15
163 16
163 17
163 47
163 48
163 49
163 50
163 51
163 52
163 53
163 54
163 55
163 65
163 67
163 71
163 74
163 75
163 80
163 160
164 1
164 2
164 3
164 4
164 5
164 6
164 7
164 8
164 9
164 10
164 11
164 12
164 13
164 14
164 15
164 16
164 17
164 47
164 48
164 49
164 50
164 51
164 52
164 53
164 54
164 55
164 65
164 67
164 71
164 74
164 75
164 80
165 1
165 2
165 3
165 4
165 5
165 6
165 7
165 8
165 9
165 10
165 11
165 12
165 13
165 14
165 15
165 16
165 17
165 47
165 48
165 49
165 50
165 51
165 52
165 53
165 54
165 55
165 65
165 67
165 71
165 74
165 75
165 80
165 164
166 1
166 2
166 3
166 4
166 5
166 6
166 7
166 8
166 9
166 10
166 11
166 12
166 13
166 14
166 15
166 16
166 17
166 47
166 48
166 49
166 50
166 51
166 52
166 53
166 54
166 55
166 65
166 67
166 71
166 74
166 75
166 80
169 1
169 2
169 17
169 18
169 19
169 20
169 21
169 22
169 23
169 24
169 25
169 26
169 27
169 28
169 29
169 30
169 31
169 32
169 33
169 37
169 39
169 40
169 41
169 42
169 43
169 44
169 45
169 46
169 56
169 57
169 59
169 60
169 62
169 63
169 64
169 83
169 85
169 87
169 88
169 91
169 99
169 104
169 107
169 111
169 112
169 114
169 117
169 118
169 120
173 1
173 2
173 3
173 4
173 5
173 6
173 7
173 8
173 9
173 10
173 11
173 12
173 13
173 14
173 15
173 16
173 17
173 47
173 48
173 49
173 50
173 51
173 52
173 53
173 54
173 55
173 65
173 67
173 71
173 74
173 75
173 80
173 131
174 1
174 2
174 3
174 4
174 5
174 6
174 7
174 8
174 9
174 10
174 11
174 12
174 13
174 14
174 15
174 16
174 17
174 47
174 48
174 49
174 50
174 51
174 52
174 53
174 54
174 55
174 65
174 67
174 71
174 74
174 75
174 80
174 131
176 1
176 2
176 3
176 4
176 5
176 6
176 7
176 8
176 9
176 10
176 11
176 12
176 13
176 14
176 15
176 16
176 17
176 47
176 48
176 49
176 50
176 51
176 52
176 53
176 54
176 55
176 65
176 67
176 71
176 74
176 75
176 80
176 131
177 1
177 2
177 3
177 4
177 5
177 6
177 7
177 8
177 9
177 10
177 11
177 12
177 13
177 14
177 15
177 16
177 17
177 47
177 48
177 49
177 50
177 51
177 52
177 53
177 54
177 55
177 65
177 67
177 71
177 74
177 75
177 80
177 131
178 1
178 2
178 3
178 4
178 5
178 6
178 7
178 8
178 9
178 10
178 11
178 12
178 13
178 14
178 15
178 16
178 17
178 47
178 48
178 49
178 50
178 51
178 52
178 53
178 54
178 55
178 65
178 67
178 71
178 74
178 75
178 80
178 131
181 1
181 2
181 17
181 18
181 19
181 20
181 21
181 22
181 23
181 24
181 25
181 26
181 27
181 28
181 29
181 30
181 31
181 32
181 33
181 36
181 39
181 40
181 41
181 42
181 43
181 44
181 45
181 46
181 56
181 57
181 59
181 60
181 62
181 63
181 64
181 83
181 85
181 87
181 88
181 91
181 99
181 104
181 107
181 111
181 112
181 114
181 117
181 118
181 120
184 1
184 2
184 17
184 18
184 19
184 20
184 21
184 22
184 23
184 24
184 25
184 26
184 27
184 28
184 29
184 30
184 31
184 32
184 39
184 40
184 41
184 42
184 43
184 44
184 45
184 46
184 56
184 57
184 59
184 60
184 62
187 1
187 2
187 17
187 18
187 19
187 20
187 21
187 22
187 23
187 24
187 25
187 26
187 27
187 28
187 29
187 30
187 31
187 32
187 38
187 39
187 40
187 41
187 42
187 43
187 44
187 45
187 46
187 56
187 57
187 59
187 60
187 62
187 184
189 1
189 2
189 17
189 18
189 19
189 20
189 21
189 22
189 23
189 24
189 25
189 26
189 27
189 28
189 29
189 30
189 31
189 32
189 38
189 39
189 40
189 41
189 42
189 43
189 44
189 45
189 46
189 56
189 57
189 59
189 60
189 184
189 187
191 1
191 2
191 3
191 4
191 5
191 6
191 7
191 8
191 9
191 10
191 11
191 12
191 13
191 14
191 15
191 16
191 17
191 47
191 48
191 49
191 50
191 51
191 52
191 53
191 54
191 55
192 1
192 2
192 3
192 4
192 5
192 6
192 7
192 8
192 9
192 10
192 11
192 12
192 13
192 14
192 15
192 16
192 17
192 47
192 48
192 49
192 50
192 51
192 52
192 53
192 54
192 55
195 1
195 2
195 17
195 18
195 19
195 20
195 21
195 22
195 23
195 24
195 25
195 26
195 27
195 28
195 29
195 30
195 31
195 32
195 38
195 39
195 40
195 41
195 42
195 43
195 44
195 45
195 46
195 56
195 57
195 59
195 60
195 187
195 189
197 1
197 2
197 17
197 18
197 19
197 20
197 21
197 22
197 23
197 24
197 25
197 26
197 27
197 28
197 29
197 30
197 31
197 32
197 39
197 40
197 41
197 42
197 43
197 44
197 45
197 46
197 56
197 57
197 59
197 60
197 62
49